Route #1: 10 5 3 8 4 7 9 6 71 14 19 2 15 12 16 17 13 1 18
Route #2: 11 35
Route #3: 33 36
Route #4: 20 29 30 21 22 28 27 44 42 43 46 53 45 52 48 47 50 70 51 49 25 24 26 23
Route #5: 31 32 34 60 61 58 59 63 62 64 65 66 67 69 37 38 40 68 39 57 56 41 55 54
Cost 255.38328887929578